SLURM_JOB_ID: 55214740
SLURM_JOB_USER: vsc34888
SLURM_JOB_ACCOUNT: lp_elect_gen_modeling
SLURM_JOB_NAME: RTS24_full_MILP
SLURM_CLUSTER_NAME: genius
SLURM_JOB_PARTITION: batch
SLURM_NNODES: 1
SLURM_NODELIST: r27i27n11
SLURM_JOB_CPUS_PER_NODE: 36
Date: Wed Sep 13 14:37:14 CEST 2023
Walltime: 03-00:00:00
========================================================================
Activation OK
Starting runs

 #### Academic research license - for non-commercial use only #### 

RTS24
/vsc-hard-mounts/leuven-data/348/vsc34888/JointResearch/05.Models/06.Benchmarking/A.The_full_year_MILP
gurobi
['oSN_Main_v2.py', '--case', 'RTS24']
Namespace(case='RTS24', dir='/vsc-hard-mounts/leuven-data/348/vsc34888/JointResearch/05.Models/06.Benchmarking/A.The_full_year_MILP', solver='gurobi')
Namespace(case='RTS24', dir='/vsc-hard-mounts/leuven-data/348/vsc34888/JointResearch/05.Models/06.Benchmarking/A.The_full_year_MILP', solver='gurobi')
Reading    input data                 ...  0 s
Setting up input data                 ...  6 s
Generating objective function         ...  1 s
Generating operation & investment     ...  0 s
Generating balance                    ...  18 s
Generating storage operation          ...  0 s
Generating generation commitment      ...  11 s
Generating generation capacity        ...  5 s
Generating net P capacity bounds      ...  18 s
Generating net Q capacity bounds      ...  18 s
Generating net P constraints          ...  41 s
Generating net Q constraints          ...  44 s
Generating net voltage bounds         ...  2 s
Generating net non negative losses    ...  4 s
Generating net linear SOC2            ...  19 s
Generating net gshb injection         ...  0 s
Generating net bshb injection         ...  0 s
Econometric analysis  constraints     ...  0 s
Writing LP file                       ...  148 s
Set parameter Username
Set parameter TokenServer to value "SET-S-ME-LM3.luna.kuleuven.be"
Read LP format model from file /tmp/tmp28gg9is0.pyomo.lp
Reading time = 8.59 seconds
x1: 3256347 rows, 1279908 columns, 10596870 nonzeros
Set parameter QCPDual to value 1
Set parameter LogFile to value "/vsc-hard-mounts/leuven-data/348/vsc34888/JointResearch/05.Models/06.Benchmarking/A.The_full_year_MILP/RTS24/openStarNet_RTS24.log"
Set parameter Method to value 2
Set parameter MIPFocus to value 1
Set parameter Presolve to value 2
Set parameter RINS to value 100
Set parameter MIPGap to value 0.01
Set parameter Threads to value 36
Set parameter TimeLimit to value 76000
Set parameter IterationLimit to value 76000000
Gurobi Optimizer version 9.5.0 build v9.5.0rc5 (linux64)
Thread count: 36 physical cores, 36 logical processors, using up to 36 threads
Optimize a model with 3256347 rows, 1279908 columns and 10596870 nonzeros
Model fingerprint: 0xeca07252
Variable types: 1279869 continuous, 39 integer (39 binary)
Coefficient statistics:
  Matrix range     [1e-02, 3e+02]
  Objective range  [1e+00, 1e+00]
  Bounds range     [1e-04, 1e+00]
  RHS range        [1e-04, 1e+00]
Presolve removed 281763 rows and 13156 columns (presolve time = 5s) ...
Presolve removed 797933 rows and 90000 columns (presolve time = 11s) ...
Presolve removed 965331 rows and 248662 columns (presolve time = 15s) ...
Presolve removed 965331 rows and 248662 columns (presolve time = 20s) ...
Presolve removed 965331 rows and 248662 columns (presolve time = 25s) ...
Presolve removed 965331 rows and 248662 columns (presolve time = 30s) ...
Presolve removed 965331 rows and 248662 columns (presolve time = 35s) ...
Presolve removed 1030851 rows and 314182 columns (presolve time = 41s) ...
Presolve removed 1030851 rows and 314182 columns (presolve time = 45s) ...
Presolve removed 1030851 rows and 314182 columns
Presolve time: 49.15s
Presolved: 2225496 rows, 965726 columns, 7840919 nonzeros
Variable types: 965687 continuous, 39 integer (39 binary)
Root relaxation presolve removed 0 rows and 0 columns (presolve time = 5s) ...
Root relaxation presolved: 2225496 rows, 965726 columns, 7840919 nonzeros

Root barrier log...

Ordering time: 1.05s

Barrier statistics:
 Dense cols : 39
 AA' NZ     : 2.463e+07
 Factor NZ  : 6.190e+07 (roughly 1.8 GB of memory)
 Factor Ops : 2.602e+09 (less than 1 second per iteration)
 Threads    : 35

                  Objective                Residual
Iter       Primal          Dual         Primal    Dual     Compl     Time
   0   1.42433633e+05 -2.08046435e+07  3.06e+00 1.91e+00  1.65e+01    73s
   1   5.22957930e+04 -6.63562238e+06  6.38e-01 2.07e+00  3.00e+00    74s
   2   2.34796019e+04 -1.22859314e+06  2.63e-02 3.30e-09  3.55e-01    75s
   3   1.23820234e+04 -2.50390244e+05  4.53e-03 4.58e-10  7.08e-02    77s
   4   5.82905547e+03 -1.00119759e+05  2.55e-03 1.63e-10  2.84e-02    78s
   5   3.13766799e+03 -2.31217753e+04  1.41e-03 3.35e-11  7.01e-03    79s
   6   5.76013395e+02 -3.09426181e+03  1.06e-04 5.95e-12  9.77e-04    80s
   7   4.17611041e+02 -1.15278874e+03  5.31e-05 3.89e-12  4.18e-04    81s
   8   2.78396304e+02 -6.11187974e+02  2.51e-05 2.17e-12  2.36e-04    82s
   9   1.39130856e+02 -1.62743120e+02  5.88e-06 1.39e-12  8.01e-05    83s
  10   8.37664275e+01 -7.47801918e+01  2.31e-06 1.17e-12  4.21e-05    84s
  11   6.70431287e+01 -2.83631607e+01  1.39e-06 6.61e-13  2.53e-05    85s
  12   5.93086758e+01 -4.32465569e+00  9.68e-07 9.24e-13  1.69e-05    86s
  13   5.23950227e+01  1.25644568e+01  5.97e-07 4.33e-13  1.06e-05    87s
  14   4.62472726e+01  2.78010836e+01  2.72e-07 9.88e-13  4.89e-06    88s
  15   4.36056959e+01  3.29114151e+01  1.45e-07 9.66e-13  2.84e-06    89s
  16   4.25011269e+01  3.68007097e+01  9.49e-08 5.40e-13  1.51e-06    90s
  17   4.11368163e+01  3.87950280e+01  3.38e-08 1.04e-12  6.21e-07    91s
  18   4.08238815e+01  3.94108918e+01  2.04e-08 4.90e-13  3.75e-07    93s
  19   4.06583355e+01  3.96657490e+01  1.34e-08 7.53e-13  2.63e-07    93s
  20   4.05163768e+01  3.98639580e+01  7.49e-09 7.96e-13  1.73e-07    94s
  21   4.04421369e+01  4.00178014e+01  4.45e-09 8.31e-13  1.13e-07    95s
  22   4.03931158e+01  4.00980174e+01  2.51e-09 6.54e-13  7.82e-08    96s
  23   4.03752116e+01  4.01340654e+01  1.81e-09 3.69e-13  6.39e-08    97s
  24   4.03541292e+01  4.02118718e+01  9.97e-10 7.96e-13  3.77e-08    98s
  25   4.03422364e+01  4.02603332e+01  5.57e-10 5.40e-13  2.17e-08    99s
  26   4.03357725e+01  4.02959793e+01  1.68e-09 1.58e-12  1.06e-08   100s
  27   4.03294388e+01  4.03173036e+01  1.51e-09 1.32e-12  3.22e-09   102s
  28   4.03273780e+01  4.03236129e+01  8.34e-10 3.13e-13  9.98e-10   103s
  29   4.03265004e+01  4.03250165e+01  5.37e-10 1.24e-14  3.93e-10   104s
  30   4.03260718e+01  4.03254233e+01  3.22e-10 4.26e-13  1.72e-10   105s
  31   4.03259137e+01  4.03255636e+01  2.40e-10 5.61e-13  9.28e-11   105s
  32   4.03257797e+01  4.03256446e+01  9.11e-10 1.10e-13  3.58e-11   107s
  33   4.03257022e+01  4.03256528e+01  5.09e-09 9.45e-13  1.31e-11   108s
  34   4.03256766e+01  4.03256575e+01  4.26e-09 1.68e-12  5.06e-12   110s
  35   4.03256652e+01  4.03256590e+01  1.11e-08 1.21e-11  1.65e-12   111s
  36   4.03256642e+01  4.03256595e+01  4.32e-08 7.24e-12  1.24e-12   112s
  37   4.03256641e+01  4.03256595e+01  4.22e-08 8.18e-12  1.22e-12   114s
  38   4.03256630e+01  4.03256597e+01  3.19e-08 1.92e-12  8.97e-13   115s
  39   4.03256630e+01  4.03256597e+01  3.11e-08 3.07e-12  8.74e-13   117s
  40   4.03256610e+01  4.03256597e+01  3.11e-08 4.16e-12  3.58e-13   119s
  41   4.03256605e+01  4.03256597e+01  1.75e-08 1.45e-11  2.03e-13   120s
  42   4.03256601e+01  4.03256597e+01  9.87e-09 5.21e-12  1.13e-13   122s
  43   4.03256599e+01  4.03256597e+01  1.19e-07 6.44e-12  4.35e-14   124s

Barrier solved model in 43 iterations and 123.62 seconds (83.87 work units)
Optimal objective 4.03256599e+01


Root crossover log...

  419201 DPushes remaining with DInf 1.3689572e+00               128s
   32957 DPushes remaining with DInf 3.6954635e-01               131s
    1873 DPushes remaining with DInf 9.2458917e-03               136s
       0 DPushes remaining with DInf 9.9156732e-03               137s

  135272 PPushes remaining with PInf 7.7232561e-04               137s
   88658 PPushes remaining with PInf 1.4085479e-04               142s
   69246 PPushes remaining with PInf 3.8173238e-03               147s
   62818 PPushes remaining with PInf 1.5139164e-03               150s
   52776 PPushes remaining with PInf 2.3498073e-03               156s
   44281 PPushes remaining with PInf 3.3987506e-03               161s
   36746 PPushes remaining with PInf 3.7319617e-03               168s
   34120 PPushes remaining with PInf 3.0355436e-03               171s
   29910 PPushes remaining with PInf 6.4326347e-03               177s
   26591 PPushes remaining with PInf 4.4495839e-03               183s
   25149 PPushes remaining with PInf 4.4962942e-03               186s
    8414 PPushes remaining with PInf 4.4373005e-03               200s
       0 PPushes remaining with PInf 3.2421797e-03               208s

  Push phase complete: Pinf 3.2421797e-03, Dinf 1.6010680e+00    208s


Root simplex log...

Iteration    Objective       Primal Inf.    Dual Inf.      Time
  284384    4.0325801e+01   0.000000e+00   1.601068e+00    227s
  292332    4.0325659e+01   0.000000e+00   3.148934e-01    234s
  296399    4.0325659e+01   0.000000e+00   2.014979e-01    240s
  298349    4.0325659e+01   0.000000e+00   1.575208e-01    246s
  301166    4.0325659e+01   0.000000e+00   4.412691e-02    252s
  305444    4.0325659e+01   0.000000e+00   9.705456e-03    257s
  309558    4.0325659e+01   0.000000e+00   1.002577e-06    263s
  309594    4.0325660e+01   0.000000e+00   0.000000e+00    308s
  309594    4.0325660e+01   0.000000e+00   0.000000e+00    327s

Root relaxation: objective 4.032566e+01, 309594 iterations, 268.68 seconds (251.41 work units)

    Nodes    |    Current Node    |     Objective Bounds      |     Work
 Expl Unexpl |  Obj  Depth IntInf | Incumbent    BestBd   Gap | It/Node Time

     0     0   40.32566    0    3          -   40.32566      -     -  328s
H    0     0                      68.3548819   40.32566  41.0%     -  612s
H    0     0                      66.4104710   40.32566  39.3%     -  880s
     0     0   48.07574    0    3   66.41047   48.07574  27.6%     - 9748s
     0     0   48.07875    0    3   66.41047   48.07875  27.6%     - 9853s
     0     0   48.07875    0    3   66.41047   48.07875  27.6%     - 9881s
     0     0   49.52448    0    3   66.41047   49.52448  25.4%     - 14493s
     0     0   49.71095    0    3   66.41047   49.71095  25.1%     - 16022s
     0     0   49.71287    0    3   66.41047   49.71287  25.1%     - 16122s
     0     0   49.71287    0    3   66.41047   49.71287  25.1%     - 16153s
     0     0   50.02530    0    4   66.41047   50.02530  24.7%     - 20274s
     0     0   50.07888    0    4   66.41047   50.07888  24.6%     - 20694s
     0     0   50.07966    0    4   66.41047   50.07966  24.6%     - 20801s
     0     0   50.40115    0    5   66.41047   50.40115  24.1%     - 25105s
     0     0   50.41398    0    5   66.41047   50.41398  24.1%     - 25817s
     0     0   50.41464    0    5   66.41047   50.41464  24.1%     - 25908s
     0     0   50.42100    0    5   66.41047   50.42100  24.1%     - 30344s
H    0     0                      66.4104208   50.42100  24.1%     - 57867s
     0     2   50.42100    0    5   66.41042   50.42100  24.1%     - 57914s
     1     4   50.58851    1    4   66.41042   50.42100  24.1% 224292 60708s
     3     8   55.64408    2    3   66.41042   50.58851  23.8% 409326 67561s
     7    16   56.48883    3    2   66.41042   50.68508  23.7% 291378 70995s
    15    30   56.67534    4    2   66.41042   50.95726  23.3% 263463 73214s
    31    36   56.84736    5    3   66.41042   51.04150  23.1% 212491 76007s

Cutting planes:
  Implied bound: 278
  MIR: 8122
  RLT: 140
  Relax-and-lift: 106

Explored 41 nodes (9171927 simplex iterations) in 76007.70 seconds (127845.97 work units)
Thread count was 36 (of 36 available processors)

Solution count 2: 66.4104 68.3549 

Time limit reached
Best objective 6.641042076945e+01, best bound 5.104158088792e+01, gap 23.1422%
WARNING: Loading a SolverResults object with an 'aborted' status, but
containing a solution
Termination condition:  maxTimeLimit
# ==========================================================
# = Solver Results                                         =
# ==========================================================
# ----------------------------------------------------------
#   Problem Information
# ----------------------------------------------------------
Problem: 
- Name: x1
  Lower bound: 51.041580887922954
  Upper bound: 66.41042076945276
  Number of objectives: 1
  Number of constraints: 3256347
  Number of variables: 1279908
  Number of binary variables: 39
  Number of integer variables: 39
  Number of continuous variables: 1279869
  Number of nonzeros: 10596870
  Sense: minimize
# ----------------------------------------------------------
#   Solver Information
# ----------------------------------------------------------
Solver: 
- Status: aborted
  Return code: 0
  Message: Optimization terminated because the time expended exceeded the value specified in the TimeLimit parameter.
  Termination condition: maxTimeLimit
  Termination message: Optimization terminated because the time expended exceeded the value specified in the TimeLimit parameter.
  Wall time: 76007.75848817825
  Error rc: 0
  Time: 76025.45987415314
# ----------------------------------------------------------
#   Solution Information
# ----------------------------------------------------------
Solution: 
- number of solutions: 0
  number of solutions displayed: 0
# ============================================================================= #
# ============================================================================= #
fixing: vNetworkInvest[2030,N_112,N_123,cac1]
fixing: vNetworkInvest[2030,N_108,N_110,cac1]
fixing: vNetworkInvest[2030,N_116,N_119,cac1]
fixing: vNetworkInvest[2030,N_115,N_124,cac1]
fixing: vNetworkInvest[2030,N_114,N_116,cac1]
fixing: vNetworkInvest[2030,N_106,N_110,cac1]
fixing: vNetworkInvest[2030,N_111,N_113,cac1]
fixing: vNetworkInvest[2030,N_117,N_122,cac1]
fixing: vNetworkInvest[2030,N_117,N_118,cac1]
fixing: vNetworkInvest[2030,N_101,N_105,cac1]
fixing: vNetworkInvest[2030,N_116,N_117,cac1]
fixing: vNetworkInvest[2030,N_103,N_109,cac1]
fixing: vNetworkInvest[2030,N_118,N_121,cac1]
fixing: vNetworkInvest[2030,N_106,N_108,cac1]
fixing: vNetworkInvest[2030,N_115,N_116,cac1]
fixing: vNetworkInvest[2030,N_108,N_109,cac1]
fixing: vNetworkInvest[2030,N_115,N_121,cac1]
fixing: vNetworkInvest[2030,N_110,N_112,cac1]
fixing: vNetworkInvest[2030,N_105,N_110,cac1]
fixing: vNetworkInvest[2030,N_119,N_120,cac1]
fixing: vNetworkInvest[2030,N_120,N_123,cac1]
fixing: vNetworkInvest[2030,N_101,N_102,cac1]
fixing: vNetworkInvest[2030,N_111,N_114,cac1]
fixing: vNetworkInvest[2030,N_107,N_108,cac1]
fixing: vNetworkInvest[2030,N_110,N_111,cac1]
fixing: vNetworkInvest[2030,N_101,N_103,cac1]
fixing: vNetworkInvest[2030,N_102,N_106,cac1]
fixing: vNetworkInvest[2030,N_118,N_121,cac2]
fixing: vNetworkInvest[2030,N_109,N_111,cac1]
fixing: vNetworkInvest[2030,N_109,N_112,cac1]
fixing: vNetworkInvest[2030,N_121,N_122,cac1]
fixing: vNetworkInvest[2030,N_115,N_121,cac2]
fixing: vNetworkInvest[2030,N_119,N_120,cac2]
fixing: vNetworkInvest[2030,N_120,N_123,cac2]
fixing: vNetworkInvest[2030,N_104,N_109,cac1]
fixing: vNetworkInvest[2030,N_102,N_104,cac1]
fixing: vNetworkInvest[2030,N_112,N_113,cac1]
fixing: vNetworkInvest[2030,N_103,N_124,cac1]
fixing: vNetworkInvest[2030,N_113,N_123,cac1]
Number of fixed variables:  39
# ============================================================================= #
# ============================================================================= #
WARNING: Implicitly replacing the Component attribute dual (type=<class
'pyomo.core.base.suffix.Suffix'>) on block 'openStarNet - Open Version of the
StartNetLite Model (Long Term Transmission Expansion Planning) - Version 1.0.0
- January 16, 2023' with a new Component (type=<class
'pyomo.core.base.suffix.Suffix'>). This is usually indicative of a modelling
error. To avoid this warning, use block.del_component() and
block.add_component().
WARNING: Implicitly replacing the Component attribute rc (type=<class
'pyomo.core.base.suffix.Suffix'>) on block 'openStarNet - Open Version of the
StartNetLite Model (Long Term Transmission Expansion Planning) - Version 1.0.0
- January 16, 2023' with a new Component (type=<class
'pyomo.core.base.suffix.Suffix'>). This is usually indicative of a modelling
error. To avoid this warning, use block.del_component() and
block.add_component().
# ==========================================================
# = Solver Results                                         =
# ==========================================================
# ----------------------------------------------------------
#   Problem Information
# ----------------------------------------------------------
Problem: 
- Name: x1
  Lower bound: 66.41036930807024
  Upper bound: 66.41036930807024
  Number of objectives: 1
  Number of constraints: 3256347
  Number of variables: 1279869
  Number of binary variables: 0
  Number of integer variables: 0
  Number of continuous variables: 1279869
  Number of nonzeros: 9234015
  Sense: minimize
# ----------------------------------------------------------
#   Solver Information
# ----------------------------------------------------------
Solver: 
- Status: ok
  Return code: 0
  Message: Model was solved to optimality (subject to tolerances), and an optimal solution is available.
  Termination condition: optimal
  Termination message: Model was solved to optimality (subject to tolerances), and an optimal solution is available.
  Wall time: 300.70024609565735
  Error rc: 0
  Time: 326.4469995498657
# ----------------------------------------------------------
#   Solution Information
# ----------------------------------------------------------
Solution: 
- number of solutions: 0
  number of solutions displayed: 0
Solving                               ...  76576 s
Objective function value                   66.41 M€
Objective function value                   66.41036930807024
Writing         cost summary results  ...  0 s
Writing           investment results  ...  0 s
Writing       energy balance results  ...  32 s
Writing    network operation results  ...  5 s
Writing generation operation results  ...  19 s
Writing        ESS operation results  ...  0 s
Writing             economic results  ...  1 s

 #### Academic research license - for non-commercial use only #### 

Elapsed time: 76980 seconds
